
Gurobi 9.1.1 (mac64, gurobi_cl) logging started Sun Feb 21 16:59:29 2021

Academic license - for non-commercial use only - expires 2021-04-06
Using license file /Users/agnese/gurobi.lic
Set parameter LogFile to value gurobi.log

Gurobi Optimizer version 9.1.1 build v9.1.1rc0 (mac64)
Copyright (c) 2020, Gurobi Optimization, LLC

Read LP format model from file /Users/agnese/Documents/KTH-Work/GitHub_repositories/KTH-dESA/GLUCOSE/results/2Degree2060/2Degree2060_modified/GLUCOSE_2Degree2060_modified.lp
Reading time = 0.44 seconds
cost: 55289 rows, 45900 columns, 520298 nonzeros
Thread count: 2 physical cores, 4 logical processors, using up to 4 threads
Optimize a model with 55289 rows, 45900 columns and 520298 nonzeros
Model fingerprint: 0xc71a9027
Coefficient statistics:
  Matrix range     [2e-08, 6e+03]
  Objective range  [7e-08, 4e+11]
  Bounds range     [0e+00, 0e+00]
  RHS range        [1e-03, 1e+06]
Warning: Model contains large objective coefficients
         Consider reformulating model or setting NumericFocus parameter
         to avoid numerical issues.

Concurrent LP optimizer: dual simplex and barrier
Showing barrier log only...

Presolve removed 29812 rows and 27980 columns
Presolve time: 0.23s
Presolved: 25477 rows, 18042 columns, 355711 nonzeros

Ordering time: 1.29s

Barrier performed 0 iterations in 1.68 seconds
Barrier solve interrupted - model solved by another algorithm


Solved with dual simplex
Solved in 15569 iterations and 1.68 seconds
Infeasible or unbounded model
Iteration    Objective       Primal Inf.    Dual Inf.      Time
       0   -4.5900000e+33   6.086233e+33   4.590000e+03      0s
   28248    1.3413754e+09   3.411124e+08   0.000000e+00      5s
   35641    1.3570476e+09   4.239974e+09   0.000000e+00     10s

IIS computed: 62 constraints and 118 bounds
IIS runtime: 10.84 seconds

Wrote result file 'output.ilp'

